(set-info :smt-lib-version 2.6)
(set-logic QF_LIA)
(set-info :source |
Generated by: Martin Bromberger
Generated on: 2018-01-06
Generator: https://www.mpi-inf.mpg.de/fileadmin/inf/rg1/Documents/RandomUnboundedSageScript.tar.gz
Application: This is a satisfiable problem with bounded and unbounded directions and, therefore, a good test for the termination/completeness of branch-and-bound solvers.
Publications: M. Bromberger. A Reduction from Unbounded Linear Mixed Arithmetic Problems into Bounded Problems. (Work in progress.)

The benchmarks in this class were randomly generated by a sagemath script and by way of construction they are all satisfiable.
Target solver: CVC4 Mathsat SPASS-IQ YICES Z3
|)
(set-info :license "https://creativecommons.org/licenses/by/4.0/")
(set-info :category "random")
(set-info :status sat)
(declare-fun x0 () Int)
(declare-fun x1 () Int)
(declare-fun x2 () Int)
(declare-fun x3 () Int)
(declare-fun x4 () Int)
(declare-fun x5 () Int)
(declare-fun x6 () Int)
(declare-fun x7 () Int)
(declare-fun x8 () Int)
(declare-fun x9 () Int)
(declare-fun x10 () Int)
(declare-fun x11 () Int)
(declare-fun x12 () Int)
(declare-fun x13 () Int)
(declare-fun x14 () Int)
(declare-fun x15 () Int)
(declare-fun x16 () Int)
(declare-fun x17 () Int)
(declare-fun x18 () Int)
(declare-fun x19 () Int)
(declare-fun x20 () Int)
(declare-fun x21 () Int)
(declare-fun x22 () Int)
(declare-fun x23 () Int)
(declare-fun x24 () Int)
(declare-fun x25 () Int)
(declare-fun x26 () Int)
(declare-fun x27 () Int)
(declare-fun x28 () Int)
(declare-fun x29 () Int)
(declare-fun x30 () Int)
(declare-fun x31 () Int)
(declare-fun x32 () Int)
(declare-fun x33 () Int)
(declare-fun x34 () Int)
(declare-fun x35 () Int)
(declare-fun x36 () Int)
(declare-fun x37 () Int)
(declare-fun x38 () Int)
(declare-fun x39 () Int)
(declare-fun x40 () Int)
(declare-fun x41 () Int)
(declare-fun x42 () Int)
(declare-fun x43 () Int)
(declare-fun x44 () Int)
(declare-fun x45 () Int)
(declare-fun x46 () Int)
(declare-fun x47 () Int)
(declare-fun x48 () Int)
(declare-fun x49 () Int)

(assert (and 
(<= (- 4) (+ (* (- 1) x1) (+ (* 2 x2) (+ (* (- 1) x6) (+ (* 2 x7) (+ (* 1 x8) (+ (* (- 2) x10) (+ (* (- 1) x11) (+ (* (- 2) x12) (+ (* 2 x15) (+ (* 1 x16) (+ (* (- 2) x19) (+ (* 1 x20) (+ (* (- 1) x21) (+ (* 1 x23) (+ (* (- 2) x24) (+ (* 2 x25) (+ (* (- 1) x26) (+ (* (- 1) x27) (+ (* (- 2) x28) (+ (* (- 1) x29) (+ (* (- 2) x30) (+ (* 1 x31) (+ (* 1 x32) (+ (* (- 2) x33) (+ (* (- 2) x34) (+ (* 1 x35) (+ (* 2 x36) (+ (* (- 2) x37) (+ (* 2 x38) (+ (* (- 2) x39) (+ (* (- 2) x40) (+ (* (- 2) x42) (+ (* 2 x46) (+ (* 1 x47) (* (- 1) x48) ))))))))))))))))))))))))))))))))))) 
(<= (- 18) (+ (* 2 x0) (+ (* 2 x1) (+ (* 1 x3) (+ (* (- 1) x6) (+ (* (- 2) x7) (+ (* (- 1) x11) (+ (* 1 x12) (+ (* (- 1) x14) (+ (* 1 x15) (+ (* 2 x16) (+ (* 1 x17) (+ (* (- 2) x18) (+ (* (- 1) x20) (+ (* (- 1) x22) (+ (* 1 x23) (+ (* 1 x24) (+ (* (- 1) x25) (+ (* (- 1) x28) (+ (* 2 x29) (+ (* 2 x30) (+ (* 2 x31) (+ (* 2 x32) (+ (* (- 2) x35) (+ (* (- 2) x40) (+ (* 2 x41) (+ (* 2 x42) (+ (* 1 x43) (+ (* 1 x44) (+ (* 2 x47) (* (- 1) x49) )))))))))))))))))))))))))))))) 
(<= 45 (+ (* 1 x1) (+ (* 1 x2) (+ (* 1 x3) (+ (* (- 1) x4) (+ (* (- 1) x5) (+ (* (- 1) x7) (+ (* 1 x9) (+ (* 2 x10) (+ (* (- 1) x13) (+ (* (- 1) x16) (+ (* (- 2) x18) (+ (* 2 x22) (+ (* 1 x23) (+ (* (- 2) x25) (+ (* (- 2) x27) (+ (* 2 x28) (+ (* (- 2) x29) (+ (* (- 1) x30) (+ (* (- 2) x32) (+ (* 2 x33) (+ (* (- 2) x34) (+ (* 2 x35) (+ (* (- 2) x36) (+ (* 1 x37) (+ (* 1 x39) (+ (* (- 1) x43) (+ (* 2 x45) (+ (* (- 2) x46) (* (- 1) x47) ))))))))))))))))))))))))))))) 
(<= (- 49) (+ (* (- 2) x0) (+ (* (- 1) x2) (+ (* (- 1) x3) (+ (* (- 2) x5) (+ (* 2 x8) (+ (* 2 x9) (+ (* 1 x13) (+ (* 1 x14) (+ (* (- 1) x16) (+ (* 1 x17) (+ (* 2 x18) (+ (* (- 2) x19) (+ (* (- 2) x20) (+ (* 1 x22) (+ (* 2 x23) (+ (* 2 x25) (+ (* 2 x29) (+ (* 2 x31) (+ (* 2 x32) (+ (* (- 1) x33) (+ (* 1 x34) (+ (* 1 x35) (+ (* (- 1) x36) (+ (* (- 2) x37) (+ (* (- 2) x38) (+ (* (- 2) x39) (+ (* 2 x41) (+ (* 1 x42) (+ (* (- 2) x44) (+ (* (- 2) x45) (+ (* (- 1) x46) (+ (* 1 x47) (+ (* 2 x48) (* (- 2) x49) )))))))))))))))))))))))))))))))))) 
(<= 13 (+ (* (- 1) x0) (+ (* 1 x1) (+ (* 1 x2) (+ (* 2 x3) (+ (* 1 x4) (+ (* (- 1) x7) (+ (* 1 x8) (+ (* (- 2) x9) (+ (* 2 x13) (+ (* (- 2) x14) (+ (* 1 x16) (+ (* (- 2) x17) (+ (* 1 x18) (+ (* 2 x20) (+ (* (- 1) x21) (+ (* (- 1) x22) (+ (* (- 1) x26) (+ (* 1 x28) (+ (* 1 x29) (+ (* 2 x31) (+ (* 1 x33) (+ (* (- 1) x34) (+ (* 1 x35) (+ (* (- 2) x36) (+ (* (- 1) x37) (+ (* (- 2) x40) (+ (* 1 x41) (+ (* (- 2) x44) (+ (* (- 2) x47) (* 1 x49) )))))))))))))))))))))))))))))) 
(<= (- 2) (+ (* 1 x0) (+ (* (- 1) x1) (+ (* 1 x2) (+ (* (- 1) x3) (+ (* 1 x4) (+ (* (- 1) x6) (+ (* 2 x8) (+ (* 1 x9) (+ (* 2 x10) (+ (* 2 x11) (+ (* 2 x13) (+ (* 2 x15) (+ (* (- 2) x18) (+ (* 2 x19) (+ (* 2 x20) (+ (* (- 2) x21) (+ (* 1 x22) (+ (* (- 2) x24) (+ (* 1 x25) (+ (* (- 2) x26) (+ (* 2 x27) (+ (* 1 x28) (+ (* 2 x29) (+ (* (- 1) x30) (+ (* (- 1) x35) (+ (* 2 x36) (+ (* (- 1) x37) (+ (* (- 2) x39) (+ (* (- 1) x40) (+ (* (- 1) x42) (+ (* (- 1) x43) (+ (* 1 x44) (+ (* 2 x45) (+ (* (- 1) x46) (+ (* (- 2) x47) (* 1 x49) )))))))))))))))))))))))))))))))))))) 
(<= (- 10) (+ (* 1 x1) (+ (* (- 2) x4) (+ (* (- 2) x5) (+ (* 2 x7) (+ (* 2 x9) (+ (* (- 2) x11) (+ (* (- 1) x12) (+ (* 1 x13) (+ (* 2 x14) (+ (* 1 x16) (+ (* 2 x19) (+ (* (- 2) x20) (+ (* 1 x21) (+ (* (- 1) x22) (+ (* (- 1) x23) (+ (* 1 x24) (+ (* 2 x25) (+ (* 1 x26) (+ (* (- 2) x28) (+ (* (- 1) x30) (+ (* 2 x34) (+ (* 1 x35) (+ (* 2 x37) (+ (* 2 x38) (+ (* (- 1) x39) (+ (* (- 2) x40) (+ (* (- 1) x41) (+ (* (- 2) x42) (+ (* 1 x43) (+ (* (- 2) x44) (+ (* 1 x45) (* 2 x47) )))))))))))))))))))))))))))))))) 
(<= (- 7) (+ (* 1 x1) (+ (* (- 2) x2) (+ (* (- 1) x3) (+ (* 1 x7) (+ (* (- 2) x8) (+ (* (- 1) x9) (+ (* (- 2) x10) (+ (* (- 2) x12) (+ (* (- 2) x13) (+ (* 1 x15) (+ (* (- 2) x16) (+ (* 1 x17) (+ (* (- 2) x19) (+ (* 1 x20) (+ (* 2 x21) (+ (* (- 1) x27) (+ (* (- 1) x28) (+ (* (- 2) x29) (+ (* 1 x31) (+ (* 1 x32) (+ (* (- 2) x33) (+ (* 1 x35) (+ (* (- 2) x42) (+ (* 1 x43) (+ (* (- 2) x44) (+ (* 2 x45) (+ (* (- 2) x46) (+ (* (- 2) x47) (* (- 1) x49) ))))))))))))))))))))))))))))) 
(<= 15 (+ (* (- 1) x1) (+ (* (- 1) x2) (+ (* 1 x4) (+ (* 1 x5) (+ (* (- 2) x7) (+ (* 2 x9) (+ (* 1 x12) (+ (* 2 x13) (+ (* 2 x14) (+ (* 2 x16) (+ (* (- 2) x17) (+ (* (- 1) x18) (+ (* (- 1) x19) (+ (* (- 2) x20) (+ (* 1 x21) (+ (* (- 2) x22) (+ (* (- 2) x23) (+ (* (- 1) x24) (+ (* (- 2) x25) (+ (* 1 x26) (+ (* 1 x28) (+ (* 1 x30) (+ (* 1 x31) (+ (* (- 2) x32) (+ (* 2 x34) (+ (* (- 1) x35) (+ (* 2 x36) (+ (* (- 1) x37) (+ (* 2 x41) (+ (* 2 x43) (* 1 x47) ))))))))))))))))))))))))))))))) 
(<= 41 (+ (* 1 x0) (+ (* (- 2) x1) (+ (* 1 x2) (+ (* 2 x3) (+ (* 2 x4) (+ (* 1 x6) (+ (* (- 1) x7) (+ (* (- 1) x10) (+ (* (- 2) x11) (+ (* (- 2) x16) (+ (* (- 1) x19) (+ (* 2 x20) (+ (* (- 1) x21) (+ (* (- 1) x24) (+ (* (- 2) x25) (+ (* (- 2) x27) (+ (* 2 x29) (+ (* 2 x30) (+ (* (- 2) x32) (+ (* (- 1) x34) (+ (* 2 x36) (+ (* (- 1) x38) (+ (* (- 1) x39) (+ (* (- 2) x42) (+ (* (- 2) x43) (+ (* 2 x44) (+ (* (- 1) x46) (+ (* 1 x48) (* 2 x49) ))))))))))))))))))))))))))))) 
(<= (- 51) (+ (* (- 2) x0) (+ (* (- 1) x1) (+ (* 1 x2) (+ (* 2 x4) (+ (* 2 x5) (+ (* (- 1) x6) (+ (* (- 2) x9) (+ (* 1 x10) (+ (* 1 x12) (+ (* 2 x13) (+ (* 1 x15) (+ (* 1 x18) (+ (* (- 2) x20) (+ (* 2 x21) (+ (* 2 x22) (+ (* 2 x23) (+ (* (- 1) x24) (+ (* 1 x25) (+ (* 1 x26) (+ (* (- 1) x27) (+ (* (- 1) x29) (+ (* (- 1) x30) (+ (* 1 x32) (+ (* (- 1) x39) (+ (* 1 x42) (+ (* (- 1) x44) (+ (* 2 x45) (+ (* 1 x47) (* 1 x48) ))))))))))))))))))))))))))))) 
(<= 9 (+ (* 1 x0) (+ (* (- 2) x1) (+ (* 2 x2) (+ (* 1 x3) (+ (* 1 x4) (+ (* (- 2) x5) (+ (* 1 x6) (+ (* (- 2) x8) (+ (* 2 x9) (+ (* 1 x10) (+ (* (- 2) x12) (+ (* 2 x14) (+ (* (- 1) x15) (+ (* (- 2) x16) (+ (* 1 x18) (+ (* 2 x19) (+ (* (- 2) x22) (+ (* 1 x24) (+ (* 2 x25) (+ (* 1 x26) (+ (* 1 x28) (+ (* (- 2) x29) (+ (* 1 x30) (+ (* 2 x32) (+ (* (- 2) x33) (+ (* (- 2) x34) (+ (* 1 x35) (+ (* 1 x36) (+ (* 2 x37) (+ (* 1 x42) (+ (* 2 x43) (+ (* 2 x44) (+ (* 2 x46) (+ (* (- 1) x48) (* 1 x49) ))))))))))))))))))))))))))))))))))) 
(<= 16 (+ (* (- 1) x0) (+ (* 2 x3) (+ (* (- 1) x4) (+ (* 2 x5) (+ (* 1 x6) (+ (* (- 1) x8) (+ (* (- 2) x9) (+ (* (- 2) x11) (+ (* (- 1) x12) (+ (* 2 x13) (+ (* (- 2) x14) (+ (* 1 x16) (+ (* (- 2) x17) (+ (* (- 1) x18) (+ (* (- 1) x20) (+ (* (- 1) x21) (+ (* (- 1) x22) (+ (* (- 2) x23) (+ (* (- 2) x28) (+ (* 2 x31) (+ (* 2 x32) (+ (* 2 x36) (+ (* 2 x39) (+ (* 1 x41) (+ (* (- 1) x43) (+ (* 1 x44) (+ (* (- 2) x45) (+ (* (- 2) x46) (+ (* 2 x48) (* (- 2) x49) )))))))))))))))))))))))))))))) 
(<= 43 (+ (* 1 x0) (+ (* (- 1) x1) (+ (* 2 x2) (+ (* 1 x6) (+ (* (- 2) x7) (+ (* 2 x9) (+ (* (- 2) x10) (+ (* 1 x11) (+ (* 1 x12) (+ (* (- 2) x13) (+ (* (- 1) x14) (+ (* 1 x15) (+ (* 1 x16) (+ (* (- 1) x17) (+ (* 2 x18) (+ (* 1 x20) (+ (* 2 x21) (+ (* (- 2) x25) (+ (* (- 1) x28) (+ (* (- 2) x29) (+ (* (- 1) x30) (+ (* 1 x35) (+ (* 1 x36) (+ (* 1 x37) (+ (* (- 1) x38) (+ (* (- 1) x40) (+ (* 1 x41) (+ (* (- 2) x44) (+ (* (- 2) x46) (* (- 1) x48) )))))))))))))))))))))))))))))) 
(<= 20 (+ (* (- 1) x0) (+ (* 2 x2) (+ (* 1 x3) (+ (* (- 1) x7) (+ (* 1 x10) (+ (* 2 x12) (+ (* (- 2) x13) (+ (* (- 2) x16) (+ (* 2 x18) (+ (* 2 x19) (+ (* (- 1) x21) (+ (* 1 x22) (+ (* 2 x23) (+ (* 1 x25) (+ (* (- 1) x30) (+ (* (- 1) x32) (+ (* 2 x33) (+ (* (- 1) x39) (+ (* (- 1) x43) (+ (* 1 x44) (+ (* (- 1) x45) (+ (* (- 1) x46) (* (- 2) x47) ))))))))))))))))))))))) 
(<= 0 (+ (* (- 2) x0) (+ (* (- 2) x1) (+ (* 1 x2) (+ (* 1 x3) (+ (* 2 x5) (+ (* 1 x8) (+ (* (- 1) x9) (+ (* (- 2) x14) (+ (* 1 x15) (+ (* (- 2) x19) (+ (* 1 x21) (+ (* (- 2) x26) (+ (* 2 x28) (+ (* 2 x31) (+ (* 2 x35) (+ (* (- 1) x36) (+ (* 1 x37) (+ (* (- 1) x38) (+ (* (- 2) x39) (+ (* 2 x41) (+ (* 1 x45) (+ (* (- 1) x46) (* 1 x48) ))))))))))))))))))))))) 
(<= 3 (+ (* 1 x1) (+ (* (- 1) x2) (+ (* 2 x3) (+ (* (- 1) x4) (+ (* 1 x5) (+ (* 1 x6) (+ (* 1 x8) (+ (* 2 x12) (+ (* (- 1) x13) (+ (* 2 x15) (+ (* (- 2) x17) (+ (* (- 1) x18) (+ (* 2 x20) (+ (* (- 2) x22) (+ (* 1 x23) (+ (* 1 x26) (+ (* (- 1) x27) (+ (* 2 x29) (+ (* 2 x30) (+ (* (- 2) x31) (+ (* (- 2) x33) (+ (* (- 1) x35) (+ (* 1 x36) (+ (* (- 2) x40) (+ (* 2 x41) (+ (* (- 1) x42) (+ (* 1 x44) (+ (* (- 2) x45) (+ (* 2 x46) (+ (* 1 x48) (* (- 2) x49) ))))))))))))))))))))))))))))))) 
(<= (- 26) (+ (* (- 2) x1) (+ (* (- 2) x6) (+ (* (- 1) x8) (+ (* 2 x13) (+ (* (- 2) x16) (+ (* 1 x21) (+ (* (- 1) x24) (+ (* 1 x25) (+ (* (- 2) x26) (+ (* (- 1) x27) (+ (* (- 1) x28) (+ (* (- 1) x29) (+ (* 1 x32) (+ (* (- 2) x33) (+ (* 2 x34) (+ (* 2 x36) (+ (* 1 x37) (+ (* 2 x38) (+ (* 1 x41) (+ (* 1 x42) (+ (* (- 2) x43) (+ (* 2 x47) (+ (* (- 1) x48) (* (- 1) x49) )))))))))))))))))))))))) 
(<= (- 24) (+ (* (- 2) x0) (+ (* 1 x2) (+ (* 1 x4) (+ (* 2 x5) (+ (* (- 2) x6) (+ (* (- 1) x8) (+ (* 2 x9) (+ (* 1 x11) (+ (* 2 x13) (+ (* 2 x14) (+ (* 2 x16) (+ (* (- 2) x17) (+ (* 2 x18) (+ (* (- 1) x19) (+ (* (- 1) x21) (+ (* (- 1) x26) (+ (* 2 x30) (+ (* (- 1) x31) (+ (* 1 x32) (+ (* (- 2) x34) (+ (* 1 x36) (+ (* (- 2) x38) (+ (* (- 2) x39) (+ (* 2 x41) (+ (* 1 x43) (+ (* (- 1) x46) (* 2 x48) ))))))))))))))))))))))))))) 
(<= (- 11) (+ (* (- 2) x1) (+ (* 1 x2) (+ (* 1 x5) (+ (* 1 x6) (+ (* (- 2) x8) (+ (* 1 x10) (+ (* (- 1) x12) (+ (* (- 2) x13) (+ (* 1 x14) (+ (* 1 x16) (+ (* (- 2) x18) (+ (* 1 x19) (+ (* (- 2) x20) (+ (* 1 x22) (+ (* 2 x23) (+ (* (- 2) x24) (+ (* 2 x29) (+ (* 2 x30) (+ (* 2 x33) (+ (* 1 x34) (+ (* (- 1) x36) (+ (* (- 1) x37) (+ (* (- 2) x38) (+ (* 2 x39) (+ (* 1 x40) (+ (* 1 x42) (+ (* (- 1) x45) (+ (* 1 x46) (+ (* (- 1) x47) (* 2 x49) )))))))))))))))))))))))))))))) 
(<= 15 (+ (* (- 2) x1) (+ (* (- 2) x3) (+ (* 1 x6) (+ (* (- 2) x7) (+ (* (- 1) x9) (+ (* 1 x10) (+ (* (- 1) x14) (+ (* (- 2) x15) (+ (* (- 2) x16) (+ (* (- 2) x17) (+ (* (- 1) x19) (+ (* (- 1) x22) (+ (* 2 x23) (+ (* (- 2) x25) (+ (* (- 2) x27) (+ (* 2 x28) (+ (* 2 x32) (+ (* (- 1) x34) (+ (* (- 1) x35) (+ (* 1 x36) (+ (* 1 x38) (+ (* 2 x39) (+ (* (- 1) x40) (+ (* (- 2) x41) (+ (* 2 x42) (+ (* 1 x43) (+ (* 2 x44) (+ (* (- 2) x45) (+ (* 2 x46) (+ (* 2 x47) (+ (* 2 x48) (* (- 2) x49) )))))))))))))))))))))))))))))))) 
(<= (- 1) (+ (* 2 x3) (+ (* 2 x4) (+ (* 2 x5) (+ (* (- 2) x7) (+ (* (- 1) x10) (+ (* (- 1) x12) (+ (* (- 1) x14) (+ (* 2 x17) (+ (* 1 x19) (+ (* 1 x21) (+ (* (- 1) x24) (+ (* 2 x25) (+ (* 2 x27) (+ (* (- 1) x29) (+ (* (- 1) x30) (+ (* 2 x33) (+ (* (- 2) x36) (+ (* 2 x37) (+ (* 1 x39) (+ (* 1 x44) (+ (* 2 x45) (+ (* 1 x46) (+ (* (- 2) x47) (+ (* (- 2) x48) (* 1 x49) ))))))))))))))))))))))))) 
(<= 0 (+ (* (- 2) x0) (+ (* 1 x2) (+ (* 2 x3) (+ (* (- 1) x6) (+ (* 2 x7) (+ (* (- 2) x10) (+ (* 2 x11) (+ (* 1 x12) (+ (* (- 1) x13) (+ (* (- 1) x14) (+ (* 2 x15) (+ (* 2 x20) (+ (* (- 1) x21) (+ (* (- 1) x22) (+ (* 1 x23) (+ (* (- 1) x25) (+ (* 2 x26) (+ (* (- 1) x28) (+ (* 2 x29) (+ (* (- 2) x30) (+ (* 2 x32) (+ (* (- 1) x33) (+ (* (- 1) x34) (+ (* (- 1) x35) (+ (* 2 x38) (+ (* 2 x39) (+ (* (- 1) x41) (+ (* (- 2) x42) (+ (* (- 2) x44) (+ (* (- 1) x45) (* 1 x49) ))))))))))))))))))))))))))))))) 
(<= 12 (+ (* 1 x3) (+ (* 2 x4) (+ (* 2 x5) (+ (* 1 x6) (+ (* 1 x9) (+ (* (- 2) x10) (+ (* 1 x11) (+ (* 1 x13) (+ (* (- 1) x14) (+ (* (- 2) x15) (+ (* (- 2) x16) (+ (* (- 2) x17) (+ (* (- 2) x18) (+ (* 1 x20) (+ (* (- 2) x21) (+ (* 2 x22) (+ (* 1 x23) (+ (* (- 1) x24) (+ (* (- 1) x25) (+ (* (- 2) x26) (+ (* 1 x27) (+ (* (- 1) x31) (+ (* 1 x36) (+ (* 2 x38) (+ (* 2 x39) (+ (* (- 1) x45) (+ (* (- 1) x47) (* 1 x49) )))))))))))))))))))))))))))) 
(<= (- 17) (+ (* (- 1) x0) (+ (* (- 1) x1) (+ (* (- 2) x4) (+ (* (- 2) x5) (+ (* (- 1) x6) (+ (* (- 1) x7) (+ (* (- 2) x8) (+ (* 1 x9) (+ (* (- 2) x10) (+ (* 2 x11) (+ (* (- 1) x12) (+ (* (- 1) x15) (+ (* (- 2) x16) (+ (* 1 x17) (+ (* 1 x19) (+ (* 2 x21) (+ (* (- 2) x22) (+ (* 1 x23) (+ (* (- 2) x24) (+ (* 1 x25) (+ (* 2 x27) (+ (* 2 x29) (+ (* (- 1) x30) (+ (* (- 1) x33) (+ (* (- 2) x35) (+ (* (- 2) x36) (+ (* (- 1) x38) (+ (* 2 x39) (+ (* (- 1) x40) (+ (* (- 2) x43) (+ (* (- 2) x44) (+ (* 1 x46) (+ (* 1 x47) (* 2 x48) )))))))))))))))))))))))))))))))))) 
(<= 16 (+ (* (- 2) x0) (+ (* (- 2) x2) (+ (* 2 x3) (+ (* (- 2) x5) (+ (* 1 x7) (+ (* (- 1) x10) (+ (* (- 1) x11) (+ (* 2 x12) (+ (* (- 1) x13) (+ (* 1 x14) (+ (* (- 1) x17) (+ (* (- 2) x19) (+ (* (- 2) x20) (+ (* 1 x23) (+ (* 2 x27) (+ (* (- 1) x28) (+ (* 1 x29) (+ (* 1 x30) (+ (* (- 1) x31) (+ (* (- 2) x34) (+ (* (- 1) x36) (+ (* (- 1) x38) (+ (* (- 1) x40) (+ (* (- 2) x41) (+ (* (- 2) x43) (+ (* 1 x44) (+ (* (- 1) x45) (+ (* (- 2) x46) (+ (* 2 x47) (+ (* (- 1) x48) (* 1 x49) ))))))))))))))))))))))))))))))) 
(<= 48 (+ (* 1 x0) (+ (* (- 2) x5) (+ (* 2 x6) (+ (* 2 x7) (+ (* (- 2) x9) (+ (* 1 x10) (+ (* (- 2) x11) (+ (* 2 x12) (+ (* (- 2) x14) (+ (* 1 x15) (+ (* 2 x16) (+ (* (- 2) x17) (+ (* 1 x18) (+ (* (- 1) x19) (+ (* 1 x23) (+ (* 1 x24) (+ (* (- 1) x25) (+ (* 1 x30) (+ (* 2 x31) (+ (* (- 1) x32) (+ (* 1 x34) (+ (* 2 x35) (+ (* 2 x38) (+ (* 2 x39) (+ (* 2 x40) (+ (* (- 1) x42) (+ (* (- 1) x44) (+ (* 1 x45) (+ (* (- 2) x46) (+ (* 2 x47) (* (- 2) x49) ))))))))))))))))))))))))))))))) 
(<= 18 (+ (* 1 x1) (+ (* (- 2) x2) (+ (* (- 2) x5) (+ (* 2 x8) (+ (* 2 x9) (+ (* (- 1) x11) (+ (* (- 1) x12) (+ (* 2 x13) (+ (* 1 x14) (+ (* 2 x15) (+ (* 2 x16) (+ (* (- 1) x17) (+ (* (- 1) x18) (+ (* 1 x20) (+ (* (- 2) x22) (+ (* 1 x24) (+ (* (- 2) x25) (+ (* 2 x26) (+ (* (- 1) x27) (+ (* (- 1) x28) (+ (* 1 x29) (+ (* 2 x31) (+ (* 1 x33) (+ (* 1 x35) (+ (* (- 1) x36) (+ (* (- 1) x37) (+ (* (- 2) x38) (+ (* 1 x39) (+ (* (- 1) x41) (+ (* (- 2) x42) (+ (* (- 1) x43) (+ (* 2 x45) (+ (* 1 x46) (+ (* (- 2) x47) (* (- 1) x48) ))))))))))))))))))))))))))))))))))) 
(<= 33 (+ (* 2 x0) (+ (* (- 1) x1) (+ (* (- 2) x2) (+ (* (- 2) x4) (+ (* (- 1) x5) (+ (* 2 x6) (+ (* 2 x7) (+ (* 1 x8) (+ (* 1 x12) (+ (* 1 x13) (+ (* 1 x14) (+ (* 2 x16) (+ (* 2 x17) (+ (* (- 2) x18) (+ (* (- 1) x19) (+ (* (- 2) x20) (+ (* (- 1) x22) (+ (* 2 x23) (+ (* (- 2) x24) (+ (* (- 2) x29) (+ (* 1 x30) (+ (* 2 x31) (+ (* (- 2) x32) (+ (* 2 x33) (+ (* (- 2) x36) (+ (* (- 2) x40) (+ (* 1 x41) (+ (* 2 x42) (+ (* (- 1) x43) (+ (* (- 2) x44) (+ (* (- 1) x46) (+ (* (- 2) x47) (+ (* (- 2) x48) (* (- 2) x49) )))))))))))))))))))))))))))))))))) 
(<= 27 (+ (* (- 1) x0) (+ (* (- 2) x1) (+ (* 1 x2) (+ (* (- 2) x4) (+ (* (- 2) x5) (+ (* 1 x6) (+ (* (- 2) x8) (+ (* 2 x9) (+ (* 1 x10) (+ (* 2 x12) (+ (* (- 2) x14) (+ (* (- 1) x15) (+ (* (- 1) x16) (+ (* 1 x17) (+ (* (- 2) x18) (+ (* (- 2) x23) (+ (* 2 x24) (+ (* (- 2) x25) (+ (* (- 2) x27) (+ (* (- 2) x29) (+ (* 2 x30) (+ (* 1 x31) (+ (* (- 1) x32) (+ (* (- 2) x33) (+ (* 1 x34) (+ (* 2 x37) (+ (* (- 1) x38) (+ (* (- 1) x39) (+ (* 2 x43) (+ (* (- 1) x44) (+ (* 1 x45) (+ (* 1 x47) (* (- 2) x48) ))))))))))))))))))))))))))))))))) 
(<= 21 (+ (* (- 2) x1) (+ (* 2 x3) (+ (* 1 x5) (+ (* (- 2) x10) (+ (* (- 1) x11) (+ (* (- 1) x15) (+ (* (- 1) x16) (+ (* (- 1) x23) (+ (* 1 x26) (+ (* 2 x28) (+ (* (- 2) x29) (+ (* 2 x30) (+ (* (- 2) x31) (+ (* 1 x33) (+ (* (- 2) x34) (+ (* 2 x35) (+ (* (- 1) x38) (+ (* 2 x40) (+ (* 2 x41) (+ (* (- 1) x42) (+ (* (- 2) x43) (+ (* (- 1) x44) (+ (* 2 x45) (+ (* (- 1) x46) (+ (* (- 1) x47) (+ (* (- 1) x48) (* (- 2) x49) ))))))))))))))))))))))))))) 
(<= 29 (+ (* (- 1) x2) (+ (* (- 2) x4) (+ (* 1 x5) (+ (* 1 x6) (+ (* (- 1) x9) (+ (* 2 x13) (+ (* 2 x14) (+ (* (- 1) x15) (+ (* 1 x18) (+ (* (- 1) x19) (+ (* 1 x20) (+ (* 2 x21) (+ (* (- 1) x24) (+ (* 1 x26) (+ (* (- 1) x29) (+ (* 1 x30) (+ (* (- 2) x31) (+ (* (- 1) x32) (+ (* 1 x33) (+ (* (- 1) x36) (+ (* 1 x37) (+ (* 1 x38) (+ (* 2 x39) (+ (* 2 x40) (+ (* 1 x41) (+ (* 1 x42) (+ (* 2 x43) (+ (* 2 x44) (+ (* (- 1) x45) (+ (* (- 2) x47) (+ (* (- 2) x48) (* 2 x49) )))))))))))))))))))))))))))))))) 
(<= (- 18) (+ (* (- 1) x0) (+ (* 2 x1) (+ (* (- 2) x2) (+ (* (- 1) x3) (+ (* (- 2) x5) (+ (* 2 x7) (+ (* (- 2) x8) (+ (* (- 1) x13) (+ (* 2 x14) (+ (* (- 2) x15) (+ (* (- 2) x16) (+ (* 2 x17) (+ (* 2 x19) (+ (* 1 x21) (+ (* 2 x22) (+ (* 1 x23) (+ (* (- 2) x25) (+ (* 2 x26) (+ (* (- 2) x27) (+ (* (- 1) x28) (+ (* 2 x29) (+ (* (- 2) x34) (+ (* (- 1) x35) (+ (* (- 2) x36) (+ (* (- 1) x37) (+ (* (- 2) x44) (+ (* (- 2) x45) (+ (* (- 2) x46) (+ (* (- 2) x47) (* (- 1) x48) )))))))))))))))))))))))))))))) 
(<= (- 20) (+ (* 1 x0) (+ (* (- 2) x3) (+ (* (- 2) x4) (+ (* (- 1) x5) (+ (* 2 x7) (+ (* (- 2) x8) (+ (* (- 1) x12) (+ (* (- 1) x13) (+ (* (- 1) x15) (+ (* (- 1) x16) (+ (* 2 x18) (+ (* (- 2) x19) (+ (* (- 1) x21) (+ (* (- 2) x22) (+ (* (- 1) x23) (+ (* 2 x24) (+ (* (- 2) x26) (+ (* (- 1) x27) (+ (* (- 1) x30) (+ (* (- 1) x31) (+ (* (- 1) x32) (+ (* (- 2) x33) (+ (* (- 1) x36) (+ (* (- 2) x37) (+ (* 1 x38) (+ (* 2 x41) (+ (* 1 x43) (+ (* 2 x46) (* 2 x48) ))))))))))))))))))))))))))))) 
(<= (- 9) (+ (* (- 1) x2) (+ (* 2 x4) (+ (* 2 x5) (+ (* 1 x7) (+ (* 2 x12) (+ (* (- 2) x15) (+ (* 1 x16) (+ (* 2 x17) (+ (* (- 1) x18) (+ (* 2 x21) (+ (* 1 x22) (+ (* (- 1) x23) (+ (* (- 2) x26) (+ (* 2 x27) (+ (* 2 x28) (+ (* (- 1) x29) (+ (* 2 x30) (+ (* (- 2) x31) (+ (* (- 1) x33) (+ (* 1 x34) (+ (* 2 x35) (+ (* 1 x36) (+ (* (- 2) x37) (+ (* 1 x38) (+ (* 1 x40) (+ (* 2 x43) (* (- 2) x45) ))))))))))))))))))))))))))) 
(<= 22 (+ (* 2 x0) (+ (* 1 x1) (+ (* 2 x3) (+ (* 1 x4) (+ (* (- 1) x5) (+ (* (- 1) x6) (+ (* (- 1) x7) (+ (* 1 x8) (+ (* (- 2) x9) (+ (* (- 2) x13) (+ (* (- 1) x14) (+ (* (- 2) x15) (+ (* 1 x18) (+ (* 2 x20) (+ (* 2 x23) (+ (* 2 x24) (+ (* 1 x27) (+ (* 2 x28) (+ (* (- 2) x29) (+ (* 1 x31) (+ (* 1 x32) (+ (* 1 x33) (+ (* (- 2) x35) (+ (* (- 1) x40) (+ (* (- 1) x42) (+ (* (- 2) x43) (+ (* 2 x46) (* 2 x49) )))))))))))))))))))))))))))) 
(<= 28 (+ (* (- 2) x0) (+ (* (- 2) x1) (+ (* 1 x2) (+ (* (- 2) x3) (+ (* (- 1) x4) (+ (* 2 x6) (+ (* (- 2) x7) (+ (* (- 1) x9) (+ (* 1 x10) (+ (* (- 2) x12) (+ (* 2 x16) (+ (* 1 x17) (+ (* 2 x23) (+ (* (- 2) x24) (+ (* (- 2) x26) (+ (* 2 x27) (+ (* (- 2) x28) (+ (* 2 x31) (+ (* 1 x32) (+ (* 2 x37) (+ (* 2 x38) (+ (* 1 x39) (+ (* (- 1) x47) (* (- 2) x48) )))))))))))))))))))))))) 
(<= (- 1) (+ (* 2 x0) (+ (* (- 1) x1) (+ (* 1 x4) (+ (* 1 x6) (+ (* 2 x7) (+ (* 2 x9) (+ (* (- 2) x10) (+ (* (- 2) x11) (+ (* 2 x13) (+ (* 2 x15) (+ (* 2 x16) (+ (* 2 x17) (+ (* (- 2) x19) (+ (* 1 x21) (+ (* (- 1) x22) (+ (* (- 2) x24) (+ (* (- 2) x26) (+ (* (- 1) x27) (+ (* (- 1) x28) (+ (* (- 1) x29) (+ (* 1 x30) (+ (* (- 2) x31) (+ (* 1 x32) (+ (* 2 x34) (+ (* 2 x36) (+ (* 1 x37) (+ (* (- 2) x39) (+ (* 1 x40) (+ (* 2 x43) (+ (* (- 1) x44) (+ (* 2 x45) (+ (* (- 2) x46) (* (- 1) x49) ))))))))))))))))))))))))))))))))) 
(<= 10 (+ (* 2 x0) (+ (* 2 x1) (+ (* (- 2) x3) (+ (* (- 2) x4) (+ (* 2 x8) (+ (* (- 2) x9) (+ (* (- 2) x11) (+ (* (- 2) x12) (+ (* 2 x14) (+ (* 2 x15) (+ (* (- 1) x17) (+ (* 2 x18) (+ (* (- 1) x19) (+ (* 2 x20) (+ (* 1 x23) (+ (* (- 2) x24) (+ (* (- 1) x26) (+ (* (- 1) x31) (+ (* 2 x33) (+ (* (- 1) x35) (+ (* 2 x38) (+ (* (- 1) x39) (+ (* 2 x40) (+ (* 1 x41) (+ (* 1 x44) (+ (* (- 1) x45) (+ (* 2 x47) (* 1 x48) )))))))))))))))))))))))))))) 
(<= (- 16) (+ (* (- 2) x3) (+ (* 1 x4) (+ (* 1 x7) (+ (* 1 x8) (+ (* 1 x9) (+ (* 2 x10) (+ (* 1 x11) (+ (* (- 2) x12) (+ (* 2 x15) (+ (* (- 1) x16) (+ (* (- 1) x17) (+ (* (- 1) x18) (+ (* (- 1) x21) (+ (* 2 x22) (+ (* (- 1) x23) (+ (* (- 1) x24) (+ (* 1 x25) (+ (* 2 x26) (+ (* (- 1) x28) (+ (* 1 x29) (+ (* (- 1) x30) (+ (* (- 1) x31) (+ (* (- 2) x32) (+ (* (- 2) x33) (+ (* 2 x35) (+ (* 1 x38) (+ (* 1 x39) (+ (* 1 x41) (+ (* (- 1) x42) (+ (* 2 x43) (+ (* 2 x44) (+ (* 2 x45) (* (- 2) x49) ))))))))))))))))))))))))))))))))) 
(<= 10 (+ (* 1 x5) (+ (* 1 x6) (+ (* (- 1) x8) (+ (* 2 x13) (+ (* (- 2) x14) (+ (* (- 1) x15) (+ (* 2 x16) (+ (* (- 2) x17) (+ (* 1 x19) (+ (* 2 x20) (+ (* (- 1) x24) (+ (* (- 2) x25) (+ (* 1 x26) (+ (* (- 2) x27) (+ (* 1 x28) (+ (* 2 x29) (+ (* (- 2) x30) (+ (* 2 x32) (+ (* (- 1) x33) (+ (* (- 1) x34) (+ (* 2 x36) (+ (* 2 x37) (+ (* (- 1) x39) (+ (* (- 1) x40) (+ (* 1 x41) (+ (* (- 1) x42) (+ (* 1 x43) (+ (* 2 x45) (* 2 x49) ))))))))))))))))))))))))))))) 
(<= (- 23) (+ (* (- 2) x1) (+ (* 2 x4) (+ (* (- 2) x5) (+ (* (- 1) x6) (+ (* (- 1) x7) (+ (* 2 x8) (+ (* (- 2) x9) (+ (* (- 1) x10) (+ (* (- 1) x11) (+ (* (- 2) x12) (+ (* 2 x15) (+ (* 2 x17) (+ (* 2 x18) (+ (* (- 1) x19) (+ (* 2 x20) (+ (* 2 x21) (+ (* (- 1) x23) (+ (* 2 x24) (+ (* 1 x26) (+ (* (- 1) x27) (+ (* 2 x28) (+ (* 2 x29) (+ (* (- 2) x30) (+ (* 2 x31) (+ (* 2 x32) (+ (* 1 x35) (+ (* (- 1) x36) (+ (* (- 1) x41) (+ (* 2 x42) (+ (* 1 x46) (+ (* (- 1) x47) (+ (* 1 x48) (* 2 x49) ))))))))))))))))))))))))))))))))) 
(<= 23 (+ (* 1 x3) (+ (* 2 x5) (+ (* 2 x6) (+ (* (- 2) x7) (+ (* 1 x8) (+ (* 2 x9) (+ (* (- 1) x11) (+ (* (- 2) x12) (+ (* 2 x13) (+ (* (- 1) x14) (+ (* (- 2) x15) (+ (* (- 2) x16) (+ (* (- 2) x18) (+ (* (- 2) x19) (+ (* (- 1) x20) (+ (* 2 x21) (+ (* (- 2) x24) (+ (* 2 x25) (+ (* 1 x27) (+ (* (- 2) x31) (+ (* 2 x36) (+ (* 1 x38) (+ (* 2 x40) (+ (* 1 x41) (+ (* 2 x43) (+ (* 1 x46) (+ (* (- 2) x47) (+ (* (- 2) x48) (* (- 2) x49) ))))))))))))))))))))))))))))) 
(<= 1 (+ (* (- 2) x1) (+ (* 2 x3) (+ (* (- 2) x4) (+ (* (- 1) x7) (+ (* 2 x8) (+ (* 1 x9) (+ (* (- 1) x10) (+ (* (- 1) x11) (+ (* (- 1) x13) (+ (* 1 x14) (+ (* 2 x19) (+ (* (- 2) x20) (+ (* 1 x22) (+ (* 1 x24) (+ (* 2 x25) (+ (* 2 x29) (+ (* 1 x32) (+ (* (- 1) x35) (+ (* 2 x37) (+ (* 1 x38) (+ (* (- 2) x46) (+ (* 1 x47) (* (- 1) x48) ))))))))))))))))))))))) 
(<= 11 (+ (* (- 1) x0) (+ (* (- 1) x1) (+ (* (- 2) x2) (+ (* (- 1) x3) (+ (* (- 2) x4) (+ (* 1 x5) (+ (* 1 x9) (+ (* (- 2) x10) (+ (* (- 2) x11) (+ (* (- 1) x14) (+ (* 1 x16) (+ (* 1 x17) (+ (* 1 x18) (+ (* (- 2) x20) (+ (* 2 x21) (+ (* 2 x25) (+ (* (- 2) x26) (+ (* 1 x27) (+ (* 1 x28) (+ (* (- 2) x31) (+ (* 1 x33) (+ (* 2 x37) (+ (* 2 x38) (+ (* (- 1) x39) (+ (* (- 1) x42) (+ (* (- 2) x44) (+ (* (- 2) x45) (+ (* 2 x46) (+ (* (- 2) x47) (+ (* (- 1) x48) (* (- 2) x49) ))))))))))))))))))))))))))))))) 
(<= 21 (+ (* 2 x0) (+ (* 2 x2) (+ (* (- 2) x3) (+ (* 2 x4) (+ (* 1 x5) (+ (* 2 x6) (+ (* (- 1) x7) (+ (* 2 x8) (+ (* (- 1) x9) (+ (* (- 1) x10) (+ (* 2 x11) (+ (* (- 2) x14) (+ (* (- 1) x15) (+ (* 1 x16) (+ (* 2 x17) (+ (* 1 x20) (+ (* (- 1) x21) (+ (* 2 x22) (+ (* (- 1) x25) (+ (* 1 x26) (+ (* (- 1) x27) (+ (* 2 x28) (+ (* 1 x35) (+ (* 1 x36) (+ (* 2 x37) (+ (* (- 1) x40) (+ (* (- 1) x41) (+ (* (- 2) x42) (+ (* 1 x43) (+ (* 1 x44) (+ (* 2 x46) (+ (* (- 1) x47) (+ (* (- 1) x48) (* (- 2) x49) )))))))))))))))))))))))))))))))))) 
(<= 6 (+ (* 2 x0) (+ (* 2 x1) (+ (* (- 1) x3) (+ (* 2 x6) (+ (* 2 x7) (+ (* 1 x8) (+ (* (- 1) x9) (+ (* 2 x10) (+ (* 1 x12) (+ (* 1 x16) (+ (* (- 2) x18) (+ (* (- 2) x20) (+ (* 1 x22) (+ (* (- 2) x24) (+ (* (- 1) x25) (+ (* 1 x28) (+ (* 1 x32) (+ (* (- 1) x33) (+ (* 1 x34) (+ (* 2 x35) (+ (* (- 2) x37) (+ (* 2 x38) (+ (* (- 2) x39) (+ (* 2 x43) (+ (* (- 1) x44) (+ (* (- 2) x45) (* (- 2) x47) ))))))))))))))))))))))))))) 
(<= 4 (+ (* 1 x2) (+ (* (- 1) x3) (+ (* 2 x9) (+ (* 1 x11) (+ (* 2 x14) (+ (* (- 2) x15) (+ (* (- 1) x16) (+ (* (- 2) x17) (+ (* 2 x20) (+ (* (- 2) x21) (+ (* (- 2) x23) (+ (* 2 x24) (+ (* (- 2) x26) (+ (* 2 x27) (+ (* (- 1) x28) (+ (* (- 1) x29) (+ (* 1 x30) (+ (* 1 x32) (+ (* 2 x33) (+ (* 1 x34) (+ (* (- 2) x37) (+ (* 1 x40) (+ (* (- 2) x42) (+ (* (- 2) x43) (+ (* (- 1) x44) (+ (* 1 x45) (* 1 x47) ))))))))))))))))))))))))))) 
(<= (- 16) (+ (* 2 x0) (+ (* (- 2) x1) (+ (* (- 2) x3) (+ (* 1 x4) (+ (* (- 2) x5) (+ (* (- 1) x6) (+ (* 1 x7) (+ (* (- 2) x9) (+ (* 2 x11) (+ (* 2 x12) (+ (* 2 x13) (+ (* (- 2) x15) (+ (* 1 x17) (+ (* 1 x18) (+ (* 2 x19) (+ (* (- 2) x21) (+ (* (- 2) x22) (+ (* 1 x24) (+ (* (- 1) x26) (+ (* 1 x27) (+ (* 2 x29) (+ (* (- 1) x33) (+ (* 1 x34) (+ (* 2 x37) (+ (* 2 x38) (+ (* (- 2) x40) (+ (* (- 1) x42) (+ (* 2 x45) (+ (* 2 x46) (+ (* (- 1) x47) (* 2 x48) ))))))))))))))))))))))))))))))) 
(<= (- 180) (+ (* 1 x0) (+ (* 56 x1) (+ (* (- 10) x2) (+ (* 6 x3) (+ (* 15 x4) (+ (* 3 x5) (+ (* (- 17) x6) (+ (* (- 16) x7) (+ (* 13 x8) (+ (* (- 18) x9) (+ (* 18 x10) (+ (* 3 x11) (+ (* 8 x12) (+ (* (- 37) x13) (+ (* (- 1) x15) (+ (* (- 21) x16) (+ (* (- 2) x17) (+ (* (- 1) x19) (+ (* 8 x20) (+ (* (- 15) x21) (+ (* 22 x22) (+ (* (- 17) x23) (+ (* 23 x24) (+ (* (- 1) x25) (+ (* 5 x26) (+ (* 11 x27) (+ (* (- 8) x28) (+ (* (- 11) x29) (+ (* (- 10) x30) (+ (* 6 x31) (+ (* (- 15) x32) (+ (* 13 x33) (+ (* (- 1) x34) (+ (* (- 13) x35) (+ (* (- 2) x36) (+ (* (- 36) x37) (+ (* (- 18) x38) (+ (* (- 1) x39) (+ (* 17 x40) (+ (* (- 30) x41) (+ (* 19 x42) (+ (* (- 19) x43) (+ (* 25 x44) (+ (* (- 24) x45) (+ (* (- 30) x46) (+ (* 23 x47) (+ (* (- 1) x48) (* 6 x49) )))))))))))))))))))))))))))))))))))))))))))))))) 
(<= (- 522) (+ (* (- 6) x0) (+ (* (- 84) x1) (+ (* 9 x2) (+ (* (- 44) x3) (+ (* (- 29) x4) (+ (* 1 x5) (+ (* 16 x6) (+ (* 35 x7) (+ (* (- 36) x8) (+ (* 40 x9) (+ (* (- 21) x10) (+ (* 19 x11) (+ (* (- 20) x12) (+ (* 44 x13) (+ (* 3 x14) (+ (* (- 15) x15) (+ (* 29 x16) (+ (* 28 x17) (+ (* 9 x18) (+ (* 15 x19) (+ (* (- 36) x20) (+ (* 19 x21) (+ (* (- 32) x22) (+ (* 12 x23) (+ (* (- 5) x24) (+ (* 11 x25) (+ (* (- 2) x26) (+ (* (- 16) x27) (+ (* 12 x28) (+ (* 16 x29) (+ (* (- 1) x30) (+ (* (- 36) x31) (+ (* 26 x32) (+ (* (- 23) x33) (+ (* 17 x34) (+ (* 5 x35) (+ (* (- 18) x36) (+ (* 70 x37) (+ (* 12 x38) (+ (* 6 x39) (+ (* (- 6) x40) (+ (* 13 x41) (+ (* (- 12) x42) (+ (* 55 x43) (+ (* (- 34) x44) (+ (* 46 x45) (+ (* 80 x46) (+ (* (- 31) x47) (+ (* 12 x48) (* 11 x49) )))))))))))))))))))))))))))))))))))))))))))))))))) 
(<= 2045 (+ (* 38 x0) (+ (* 61 x1) (+ (* (- 16) x2) (+ (* 78 x3) (+ (* 30 x4) (+ (* (- 22) x5) (+ (* (- 3) x6) (+ (* (- 42) x7) (+ (* 48 x8) (+ (* (- 77) x9) (+ (* (- 2) x10) (+ (* (- 63) x11) (+ (* 32 x12) (+ (* (- 1) x13) (+ (* 35 x15) (+ (* 11 x16) (+ (* (- 70) x17) (+ (* (- 24) x18) (+ (* (- 37) x19) (+ (* 63 x20) (+ (* (- 21) x21) (+ (* 6 x22) (+ (* 2 x23) (+ (* (- 35) x24) (+ (* (- 38) x25) (+ (* (- 10) x26) (+ (* 9 x27) (+ (* (- 20) x28) (+ (* (- 36) x29) (+ (* 39 x30) (+ (* 97 x31) (+ (* (- 46) x32) (+ (* 27 x33) (+ (* (- 41) x34) (+ (* 14 x35) (+ (* 53 x36) (+ (* (- 76) x37) (+ (* 33 x38) (+ (* 2 x39) (+ (* (- 47) x40) (+ (* 36 x41) (+ (* (- 26) x42) (+ (* (- 112) x43) (+ (* 28 x44) (+ (* (- 40) x45) (+ (* (- 102) x46) (+ (* 24 x47) (+ (* (- 44) x48) (* (- 50) x49) ))))))))))))))))))))))))))))))))))))))))))))))))) 
(<= 1519 (+ (* 18 x0) (+ (* 129 x1) (+ (* (- 8) x2) (+ (* 78 x3) (+ (* 35 x4) (+ (* (- 36) x5) (+ (* (- 15) x6) (+ (* (- 48) x7) (+ (* 25 x8) (+ (* (- 84) x9) (+ (* 40 x10) (+ (* (- 45) x11) (+ (* 27 x12) (+ (* (- 81) x13) (+ (* 10 x14) (+ (* 23 x15) (+ (* (- 53) x16) (+ (* (- 54) x17) (+ (* (- 8) x18) (+ (* (- 17) x19) (+ (* 67 x20) (+ (* (- 25) x21) (+ (* 43 x22) (+ (* 21 x23) (+ (* (- 33) x24) (+ (* (- 25) x25) (+ (* (- 2) x26) (+ (* 23 x27) (+ (* (- 20) x28) (+ (* (- 50) x29) (+ (* 20 x30) (+ (* 81 x31) (+ (* (- 67) x32) (+ (* 43 x33) (+ (* (- 46) x34) (+ (* 2 x35) (+ (* 22 x36) (+ (* (- 120) x37) (+ (* (- 12) x38) (+ (* 8 x39) (+ (* (- 3) x40) (+ (* (- 1) x41) (+ (* 22 x42) (+ (* (- 124) x43) (+ (* 41 x44) (+ (* (- 83) x45) (+ (* (- 152) x46) (+ (* 49 x47) (+ (* (- 13) x48) (* (- 35) x49) )))))))))))))))))))))))))))))))))))))))))))))))))) 
(<= (- 1535) (+ (* (- 28) x0) (+ (* (- 108) x1) (+ (* 28 x2) (+ (* (- 59) x3) (+ (* (- 41) x4) (+ (* 65 x5) (+ (* 30 x6) (+ (* 45 x7) (+ (* (- 21) x8) (+ (* 101 x9) (+ (* (- 32) x10) (+ (* 17 x11) (+ (* (- 43) x12) (+ (* 82 x13) (+ (* (- 13) x14) (+ (* (- 11) x15) (+ (* 45 x16) (+ (* 43 x17) (+ (* 18 x18) (+ (* 4 x19) (+ (* (- 69) x20) (+ (* 37 x21) (+ (* (- 58) x22) (+ (* (- 28) x23) (+ (* 7 x24) (+ (* 53 x25) (+ (* (- 21) x26) (+ (* (- 13) x27) (+ (* 14 x28) (+ (* 40 x29) (+ (* (- 24) x30) (+ (* (- 96) x31) (+ (* 67 x32) (+ (* (- 39) x33) (+ (* 64 x34) (+ (* 11 x35) (+ (* (- 4) x36) (+ (* 90 x37) (+ (* 11 x38) (+ (* (- 39) x39) (+ (* 24 x40) (+ (* 23 x41) (+ (* (- 20) x42) (+ (* 148 x43) (+ (* (- 48) x44) (+ (* 54 x45) (+ (* 145 x46) (+ (* (- 56) x47) (+ (* 33 x48) (* 32 x49) )))))))))))))))))))))))))))))))))))))))))))))))))) 
(<= (- 2972) (+ (* (- 47) x0) (+ (* (- 76) x1) (+ (* 2 x2) (+ (* (- 54) x3) (+ (* 3 x4) (+ (* 55 x5) (+ (* (- 41) x6) (+ (* 6 x7) (+ (* 2 x8) (+ (* 89 x9) (+ (* (- 22) x10) (+ (* 92 x11) (+ (* (- 9) x12) (+ (* 26 x13) (+ (* (- 34) x14) (+ (* (- 20) x15) (+ (* 18 x16) (+ (* 67 x17) (+ (* 5 x18) (+ (* 35 x19) (+ (* (- 69) x20) (+ (* 3 x21) (+ (* (- 2) x22) (+ (* (- 74) x23) (+ (* 133 x24) (+ (* 22 x25) (+ (* 67 x26) (+ (* (- 29) x27) (+ (* 27 x28) (+ (* 105 x29) (+ (* (- 75) x30) (+ (* (- 116) x31) (+ (* 90 x32) (+ (* (- 43) x33) (+ (* 38 x34) (+ (* (- 63) x35) (+ (* (- 45) x36) (+ (* 134 x37) (+ (* (- 43) x38) (+ (* 5 x39) (+ (* 35 x40) (+ (* (- 89) x41) (+ (* 25 x42) (+ (* 146 x43) (+ (* 23 x44) (+ (* 95 x45) (+ (* 152 x46) (+ (* 10 x47) (+ (* 13 x48) (* 106 x49) ))))))))))))))))))))))))))))))))))))))))))))))))))))
(check-sat)
(exit)